# Objective value = 96
WA1n 0
WA1p 0
WA2n 1
WA2p 0
WB1n 0
WB1p 0
WB2n 1
WB2p 0
WC1n 1
WC1p 0
WD1n 0
WD1p 1
WE1n 2
WE1p 0
WE2n 1
WE2p 0
WF1n 0
WF1p 3
WF2n 0
WF2p 1
WG1n 6
WG1p 0
WH1n 6
WH1p 0
WI1n 15
WI1p 0
WI2n 1
WI2p 0
WJ1n 0
WJ1p 15
WJ2n 0
WJ2p 1
WK1n 0
WK1p 15
WK2n 0
WK2p 1
WT1n 16
WT1p 0
WT2n 1
WT2p 0
5 7
a 0
b 0
c 0
d 0
e 0
f 1
g 0
h 0
i 1
j 1
k 0
l 0
m 0
n 0
o 1
p 1
q 1
r 1
s 0
t 0
